100
120
99
99
98
97
96
94
93
93
93
92
91
91
91
91
90
89
88
87
85
85
85
82
82
81
80
80
79
78
76
76
75
75
74
74
72
71
71
70
70
69
69
66
65
65
65
64
64
63
63
60
60
60
59
59
58
57
56
56
55
54
53
53
53
52
52
51
51
50
49
49
49
48
48
47
47
47
47
46
45
45
43
43
41
41
40
37
37
36
36
36
31
31
30
29
28
23
22
21
21
20
